r = [
0,12,67,3,35,20,42,64,6,13,56,0
];
p = [
0,30,4,29,5,24,19,7,18,24,30,0
];
e = [
0,20,10,13,6,11,2,7,7,13,16,0
];
d = [
0,112,198,102,145,90,112,182,87,104,140,200
];
d_bar = [
0,127,200,117,148,102,122,186,96,116,155,200
];
w = [
0,1.333333333,5,0.866666667,2,0.916666667,0.2,1.75,0.777777778,1.083333333,1.066666667,0
];
